
Gurobi 9.1.1 (win64) logging started Wed Aug  4 12:40:32 2021

Changed value of parameter LogFile to solution_log.log
   Prev:   Default: 
Gurobi Optimizer version 9.1.1 build v9.1.1rc0 (win64)
Thread count: 8 physical cores, 16 logical processors, using up to 5 threads
Optimize a model with 817 rows, 609 columns and 2604 nonzeros
Model fingerprint: 0xf4549314
Model has 91 quadratic constraints
Variable types: 481 continuous, 128 integer (128 binary)
Coefficient statistics:
  Matrix range     [3e-01, 8e+01]
  QMatrix range    [1e+00, 1e+00]
  Objective range  [1e+00, 3e+00]
  Bounds range     [1e+00, 1e+00]
  RHS range        [1e+00, 6e+01]

User MIP start produced solution with objective 362.481 (0.10s)
User MIP start produced solution with objective 362.481 (0.12s)
User MIP start produced solution with objective 347.603 (0.17s)
User MIP start produced solution with objective 347.603 (0.46s)
User MIP start produced solution with objective 343.877 (0.53s)
User MIP start produced solution with objective 343.877 (0.85s)
User MIP start produced solution with objective 343.076 (0.89s)
User MIP start produced solution with objective 343.076 (1.28s)
User MIP start produced solution with objective 322.438 (1.33s)
User MIP start produced solution with objective 322.438 (1.41s)
User MIP start produced solution with objective 322.438 (1.58s)
Loaded user MIP start with objective 322.438
Processed MIP start in 1.62 seconds

Presolve removed 98 rows and 10 columns
Presolve time: 0.02s
Presolved: 719 rows, 599 columns, 2558 nonzeros
Presolved model has 91 quadratic constraint(s)
Variable types: 473 continuous, 126 integer (126 binary)

Root relaxation: objective 2.304506e+02, 321 iterations, 0.00 seconds

    Nodes    |    Current Node    |     Objective Bounds      |     Work
 Expl Unexpl |  Obj  Depth IntInf | Incumbent    BestBd   Gap | It/Node Time

     0     0  230.45061    0    1  322.43821  230.45061  28.5%     -    1s
     0     0  230.45061    0   49  322.43821  230.45061  28.5%     -    1s
     0     0  230.45061    0   27  322.43821  230.45061  28.5%     -    1s
     0     0  230.45061    0   18  322.43821  230.45061  28.5%     -    1s
     0     0  230.45061    0   17  322.43821  230.45061  28.5%     -    1s
     0     0  230.45061    0   18  322.43821  230.45061  28.5%     -    1s
     0     0  230.45061    0   18  322.43821  230.45061  28.5%     -    1s
     0     0  230.45061    0   16  322.43821  230.45061  28.5%     -    1s
     0     0  230.45061    0   28  322.43821  230.45061  28.5%     -    1s
     0     0  230.45061    0   25  322.43821  230.45061  28.5%     -    1s
     0     0  230.45061    0   25  322.43821  230.45061  28.5%     -    1s
     0     0  230.45061    0   25  322.43821  230.45061  28.5%     -    1s
     0     0  230.45061    0   25  322.43821  230.45061  28.5%     -    1s
     0     2  230.45061    0   25  322.43821  230.45061  28.5%     -    1s

Cutting planes:
  Gomory: 1
  Cover: 11
  Implied bound: 36
  Clique: 1
  MIR: 7
  Flow cover: 23
  Network: 1
  RLT: 1
  Relax-and-lift: 4

Explored 1121 nodes (126087 simplex iterations) in 2.61 seconds
Thread count was 5 (of 16 available processors)

Solution count 9: 322.438 322.438 343.076 ... 362.481

Optimal solution found (tolerance 1.00e-04)
Warning: max constraint violation (5.3052e-05) exceeds tolerance
Best objective 3.224382147928e+02, best bound 3.224381020122e+02, gap 0.0000%

User-callback calls 2679, time in user-callback 0.00 sec
Warning: Q constraint 0 doesn't have a name
Warning: linear constraint 677 and linear constraint 710 have the same name "u0"
